Test: fpga11_14_uns_rcr.cnf
Options: -no-inverting-opt -activity-nl-freq=1
WARNING: for repeatability, setting FPU to use double precision
============================[ Problem Statistics ]=============================
|                                                                             |
|  Number of symmetries:           46                                         |
|  Number of invertingSyms:         0                                         |
|  Number of variables:           308                                         |
|  Number of clauses:            2030                                         |
|  Parse time:                   0.00 s                                       |
|                                                                             |
============================[ Search Statistics ]==============================
| Conflicts |          ORIGINAL         |          LEARNT          | Progress |
|           |    Vars  Clauses Literals |    Limit  Clauses Lit/Cl |          |
===============================================================================
|       100 |     308     2030     4312 |      744      111     62 |  0.001 % |
|       250 |     308     2030     4312 |      818      359     52 |  0.001 % |
|       475 |     308     2030     4312 |      900      655     54 |  0.001 % |
|       812 |     308     2030     4312 |      990      650     52 |  0.001 % |
|      1318 |     308     2030     4312 |     1089      970     49 |  0.001 % |
|      2077 |     308     2030     4312 |     1198      754     41 |  0.001 % |
|      3216 |     308     2030     4312 |     1318     1216     41 |  0.001 % |
|      4924 |     308     2030     4312 |     1450     1205     37 |  0.001 % |
===============================================================================
restarts              : 30
conflicts             : 6235           (37111 /sec)
symconflicts          : 1036           (6166 /sec)
decisions             : 11448          (0.00 % random) (68139 /sec)
propagations          : 154635         (920392 /sec)
sympropagations       : 6477           (38551 /sec)
conflict literals     : 297962         (6.00 % deleted)
literals     : 297962         (6.00 % deleted)

HEURISTIC USAGES
random                : 0           
activity w/ lookahead : 0           
activity no lookahead : 11448       
original sp           : 0           
sym count             : 0           

Memory used           : 6.00 MB
CPU time              : 0.16801 s

UNSATISFIABLE
